SDVRP instances/custom_instances/p10_16_split0.vrp
NAME:p10_16_split
BEST_KNOWN: 0
COMMENT: 0
DIMENSION: 930
CAPACITY: 200
EDGE_WEIGHT_FORMAT: FUNCTION
EDGE_WEIGHT_TYPE: EXACT_2D
NODE_COORD_SECTION
1 0.00000 0.00000
2 44 -3
3 44 -3
4 44 -3
5 44 -3
6 44 -3
7 26 23
8 26 23
9 26 23
10 26 23
11 26 23
12 6 43
13 6 43
14 6 43
15 6 43
16 -33 29
17 -33 29
18 -33 29
19 -33 29
20 -33 29
21 -33 29
22 5 25
23 5 25
24 5 25
25 -44 10
26 -44 10
27 -44 10
28 -44 10
29 -44 10
30 -44 10
31 18 -9
32 18 -9
33 18 -9
34 -7 -1
35 -7 -1
36 -7 -1
37 -7 -1
38 -7 -1
39 32 -19
40 32 -19
41 32 -19
42 32 -19
43 32 -19
44 32 -19
45 32 -19
46 -35 20
47 -35 20
48 -35 20
49 -35 20
50 -35 20
51 -41 -28
52 -41 -28
53 -41 -28
54 -41 -28
55 13 25
56 13 25
57 13 25
58 13 25
59 13 25
60 13 25
61 -10 -16
62 -10 -16
63 -10 -16
64 -10 -16
65 -10 -16
66 -10 -16
67 -46 -3
68 -46 -3
69 -46 -3
70 -46 -3
71 -46 -3
72 -16 39
73 -16 39
74 -16 39
75 -16 39
76 -16 39
77 15 -50
78 15 -50
79 15 -50
80 15 -50
81 15 -50
82 14 20
83 14 20
84 14 20
85 -16 48
86 -16 48
87 -16 48
88 -16 48
89 -16 48
90 -16 48
91 -16 48
92 -16 48
93 15 20
94 15 20
95 15 20
96 14 -1
97 14 -1
98 14 -1
99 -6 13
100 -6 13
101 -6 13
102 -6 13
103 48 13
104 48 13
105 48 13
106 48 13
107 48 13
108 48 13
109 -15 -10
110 -15 -10
111 -15 -10
112 -15 -10
113 -15 -10
114 39 -4
115 39 -4
116 39 -4
117 39 -4
118 39 -4
119 39 -4
120 39 -4
121 39 -4
122 -43 45
123 -43 45
124 -43 45
125 -43 45
126 -43 45
127 19 15
128 19 15
129 19 15
130 43 -5
131 43 -5
132 43 -5
133 43 -5
134 43 -5
135 -20 35
136 -20 35
137 -20 35
138 -20 35
139 -20 35
140 -20 35
141 45 44
142 45 44
143 45 44
144 45 44
145 45 44
146 -47 10
147 -47 10
148 -47 10
149 -47 10
150 -21 45
151 -21 45
152 -21 45
153 -21 45
154 -21 45
155 -21 45
156 29 -36
157 29 -36
158 29 -36
159 29 -36
160 29 -36
161 -26 -7
162 -26 -7
163 -26 -7
164 -26 -7
165 -26 -7
166 -37 -8
167 -37 -8
168 -37 -8
169 -37 -8
170 26 -16
171 26 -16
172 26 -16
173 26 -16
174 -27 -3
175 -27 -3
176 -27 -3
177 -27 -3
178 -27 -3
179 -27 -3
180 -27 -3
181 -43 37
182 -43 37
183 -43 37
184 -43 37
185 -43 37
186 45 5
187 45 5
188 45 5
189 45 5
190 45 5
191 45 5
192 45 5
193 -27 -47
194 -27 -47
195 -27 -47
196 -27 -47
197 -27 -47
198 -39 0
199 -39 0
200 -39 0
201 -39 0
202 40 -36
203 40 -36
204 40 -36
205 40 -36
206 -42 29
207 -42 29
208 -42 29
209 -42 29
210 -42 29
211 0 36
212 0 36
213 0 36
214 0 36
215 -39 20
216 -39 20
217 -39 20
218 -39 20
219 -39 20
220 -16 -15
221 -16 -15
222 24 39
223 24 39
224 24 39
225 16 -22
226 16 -22
227 -10 -36
228 -13 -10
229 -13 -10
230 -13 -10
231 -13 -10
232 44 -30
233 44 -30
234 44 -30
235 44 -30
236 44 -30
237 21 49
238 21 49
239 21 49
240 21 49
241 21 49
242 18 -30
243 18 -30
244 18 -30
245 18 -30
246 18 -30
247 18 -30
248 18 -30
249 -18 26
250 -18 26
251 -18 26
252 -18 26
253 25 -38
254 25 -38
255 25 -38
256 25 -38
257 25 -38
258 -40 25
259 -40 25
260 -40 25
261 -40 25
262 -40 25
263 -40 25
264 -31 44
265 -31 44
266 -31 44
267 -31 44
268 -31 44
269 -31 44
270 -31 44
271 26 -16
272 26 -16
273 26 -16
274 26 -16
275 26 -16
276 0 -20
277 0 -20
278 0 -20
279 0 -20
280 0 -20
281 0 -20
282 0 -20
283 20 37
284 20 37
285 20 37
286 20 37
287 20 37
288 20 37
289 -36 8
290 -36 8
291 -36 8
292 -9 9
293 -9 9
294 -9 9
295 -9 9
296 -9 9
297 -9 9
298 -13 38
299 -13 38
300 -13 38
301 -13 38
302 -13 38
303 -13 38
304 -3 -16
305 -3 -16
306 -3 -16
307 40 -23
308 40 -23
309 40 -23
310 -12 46
311 -12 46
312 -12 46
313 -12 46
314 -12 46
315 -12 46
316 36 26
317 36 26
318 36 26
319 36 26
320 36 26
321 36 26
322 36 26
323 -44 43
324 -44 43
325 -44 43
326 -44 43
327 -44 43
328 -24 -49
329 -24 -49
330 -24 -49
331 -24 -49
332 -24 -49
333 -24 -49
334 -11 49
335 -11 49
336 -11 49
337 -11 49
338 -11 49
339 -11 49
340 -11 49
341 -30 24
342 -30 24
343 -30 24
344 -30 24
345 -30 24
346 14 20
347 14 20
348 47 45
349 47 45
350 47 45
351 47 45
352 47 45
353 -4 -21
354 -4 -21
355 -35 14
356 -35 14
357 -35 14
358 -35 14
359 8 -13
360 -42 49
361 -42 49
362 -42 49
363 -42 49
364 -42 49
365 -42 49
366 -42 49
367 -11 29
368 -11 29
369 -11 29
370 -11 29
371 -11 29
372 15 -15
373 15 -15
374 15 -15
375 17 -15
376 17 -15
377 17 -15
378 -46 -22
379 -39 -37
380 -39 -37
381 -39 -37
382 -39 -37
383 -43 -36
384 -43 -36
385 -43 -36
386 -43 -36
387 -43 -36
388 13 -31
389 13 -31
390 13 -31
391 13 -31
392 -21 -18
393 -21 -18
394 -21 -18
395 -21 -18
396 -21 -18
397 -21 -18
398 -21 -18
399 48 47
400 48 47
401 48 47
402 48 47
403 48 47
404 48 47
405 48 47
406 -50 -50
407 -50 -50
408 -50 -50
409 -50 -50
410 -50 -50
411 -50 -50
412 -36 48
413 -36 48
414 -36 48
415 -36 48
416 31 -32
417 31 -32
418 9 -49
419 9 -49
420 9 -49
421 9 -49
422 9 -49
423 -33 -44
424 -33 -44
425 -33 -44
426 -33 -44
427 -33 -44
428 26 -50
429 26 -50
430 26 -50
431 26 -50
432 -9 16
433 -9 16
434 -9 16
435 -9 16
436 -9 16
437 -6 7
438 -6 7
439 -6 7
440 -6 7
441 -6 7
442 -6 7
443 13 29
444 13 29
445 13 29
446 0 13
447 0 13
448 0 13
449 0 13
450 0 13
451 0 13
452 27 43
453 27 43
454 27 43
455 27 43
456 27 43
457 17 34
458 17 34
459 40 -1
460 40 -1
461 40 -1
462 40 -1
463 40 -1
464 40 -1
465 40 -1
466 20 -24
467 20 -24
468 20 -24
469 18 -24
470 18 -24
471 18 -24
472 18 -24
473 18 -24
474 18 -24
475 18 -24
476 48 0
477 48 0
478 48 0
479 48 0
480 48 0
481 48 0
482 30 -50
483 30 -50
484 30 -50
485 30 -50
486 18 14
487 18 14
488 -7 -24
489 -7 -24
490 -7 -24
491 18 -10
492 18 -10
493 18 -10
494 18 -10
495 18 -10
496 35 -5
497 35 -5
498 35 -5
499 9 -7
500 9 -7
501 9 -7
502 9 -7
503 9 -7
504 9 -7
505 9 -7
506 40 1
507 40 1
508 40 1
509 40 1
510 35 38
511 35 38
512 35 38
513 35 38
514 35 38
515 35 38
516 7 -1
517 7 -1
518 7 -1
519 7 -1
520 7 -1
521 7 -1
522 7 -1
523 7 -1
524 50 12
525 50 12
526 50 12
527 50 12
528 47 -29
529 47 -29
530 47 -29
531 47 -29
532 47 -29
533 48 18
534 48 18
535 48 18
536 34 22
537 34 22
538 34 22
539 34 22
540 34 22
541 34 22
542 34 22
543 12 -14
544 12 -14
545 12 -14
546 -14 -30
547 -14 -30
548 -14 -30
549 -14 -30
550 -14 -30
551 -14 -30
552 -14 -30
553 -1 -49
554 -1 -49
555 -1 -49
556 -1 -49
557 -1 -49
558 -1 -49
559 -1 -49
560 48 -13
561 48 -13
562 48 -13
563 48 -13
564 48 -13
565 -22 31
566 -22 31
567 25 15
568 25 15
569 -50 30
570 -50 30
571 -50 30
572 -50 30
573 -50 30
574 -50 30
575 -29 -24
576 -29 -24
577 -29 -24
578 -29 -24
579 -29 -24
580 -32 -35
581 -32 -35
582 -32 -35
583 -32 -35
584 -32 -35
585 41 34
586 41 34
587 41 34
588 25 -33
589 25 -33
590 25 -33
591 25 -33
592 25 -33
593 25 -33
594 -8 -38
595 -8 -38
596 -8 -38
597 -8 -38
598 -8 -38
599 -21 22
600 -21 22
601 -21 22
602 -21 22
603 -21 22
604 46 47
605 46 47
606 46 47
607 46 47
608 -35 -24
609 -35 -24
610 -35 -24
611 -35 -24
612 -35 -24
613 0 -14
614 0 -14
615 0 -14
616 0 -14
617 0 -14
618 0 -14
619 -47 30
620 -47 30
621 -47 30
622 -15 26
623 -15 26
624 -15 26
625 -15 26
626 -15 26
627 -8 1
628 -8 1
629 -8 1
630 -8 1
631 -8 1
632 -8 1
633 -8 1
634 25 -1
635 25 -1
636 25 -1
637 25 -1
638 25 -1
639 25 -1
640 9 -34
641 9 -34
642 9 -34
643 35 14
644 35 14
645 35 14
646 35 14
647 -36 -9
648 -36 -9
649 -36 -9
650 -36 -9
651 -36 -9
652 -36 -9
653 17 28
654 17 28
655 -48 5
656 -48 5
657 -48 5
658 -48 5
659 41 -19
660 41 -19
661 41 -19
662 41 -19
663 41 -19
664 31 40
665 31 40
666 31 40
667 31 40
668 -20 12
669 -20 12
670 -20 12
671 -20 12
672 -20 12
673 -20 12
674 -28 -39
675 -28 -39
676 -28 -39
677 -28 -39
678 -28 -39
679 -7 -35
680 -7 -35
681 -7 -35
682 -7 -35
683 -7 -35
684 -7 -35
685 -43 34
686 -43 34
687 -43 34
688 -43 34
689 -43 34
690 -43 34
691 -43 -6
692 -43 -6
693 -43 -6
694 -43 -6
695 -43 -6
696 -50 -9
697 -50 -9
698 -50 -9
699 41 6
700 41 6
701 41 6
702 41 6
703 41 6
704 -33 42
705 -33 42
706 -5 -19
707 -5 -19
708 -5 -19
709 -5 -19
710 -5 -19
711 14 -18
712 14 -18
713 14 -18
714 25 -47
715 25 -47
716 25 -47
717 36 32
718 36 32
719 36 32
720 36 32
721 36 32
722 44 43
723 44 43
724 -46 10
725 -46 10
726 -46 10
727 -46 10
728 -46 10
729 -46 10
730 19 -21
731 19 -21
732 19 -21
733 19 -21
734 19 -21
735 -49 -37
736 -49 -37
737 -49 -37
738 -49 -37
739 -49 -37
740 -49 -37
741 -49 -37
742 -30 27
743 -30 27
744 -30 27
745 -30 27
746 29 42
747 29 42
748 29 42
749 29 42
750 29 42
751 21 29
752 21 29
753 21 29
754 21 29
755 21 29
756 21 29
757 7 40
758 7 40
759 7 40
760 7 40
761 7 40
762 -11 -21
763 -11 -21
764 -11 -21
765 -11 -21
766 -11 -21
767 3 18
768 3 18
769 16 -17
770 16 -17
771 16 -17
772 16 -17
773 -13 -25
774 -13 -25
775 -13 -25
776 -13 -25
777 -33 -10
778 -33 -10
779 39 5
780 39 5
781 39 5
782 39 5
783 39 5
784 39 5
785 17 6
786 17 6
787 17 6
788 17 6
789 17 6
790 17 6
791 17 6
792 23 42
793 23 42
794 23 42
795 23 42
796 23 42
797 23 42
798 23 42
799 45 14
800 45 14
801 45 14
802 45 14
803 45 14
804 45 14
805 37 27
806 37 27
807 37 27
808 37 27
809 37 27
810 42 -1
811 42 -1
812 42 -1
813 42 -1
814 42 -1
815 35 -41
816 35 -41
817 35 -41
818 -12 30
819 -12 30
820 -12 30
821 -12 30
822 -12 30
823 -12 30
824 -46 25
825 -46 25
826 -46 25
827 5 2
828 5 2
829 5 2
830 32 -40
831 32 -40
832 32 -40
833 32 -40
834 -45 -43
835 -45 -43
836 -45 -43
837 1 -10
838 1 -10
839 1 -10
840 40 4
841 40 4
842 49 20
843 49 20
844 49 20
845 49 20
846 49 20
847 32 38
848 32 38
849 32 38
850 43 -4
851 43 -4
852 43 -4
853 43 -4
854 0 -18
855 0 -18
856 0 -18
857 0 -18
858 -47 -35
859 -47 -35
860 -47 -35
861 -47 -35
862 -47 -35
863 -47 -35
864 -47 -35
865 -47 -35
866 13 -43
867 13 -43
868 13 -43
869 13 -43
870 13 -43
871 3 26
872 3 26
873 3 26
874 3 26
875 -35 -12
876 -35 -12
877 -35 -12
878 -35 -12
879 -44 24
880 -44 24
881 -44 24
882 -44 24
883 -44 24
884 -44 24
885 -33 26
886 -33 26
887 -33 26
888 -33 26
889 -33 26
890 -33 26
891 48 47
892 48 47
893 48 47
894 48 47
895 10 29
896 10 29
897 10 29
898 10 29
899 -49 -29
900 -49 -29
901 -49 -29
902 -49 -29
903 -34 21
904 -34 21
905 -34 21
906 -34 21
907 -34 21
908 -34 21
909 50 -19
910 50 -19
911 50 -19
912 50 -19
913 -50 33
914 -50 33
915 -50 33
916 -14 50
917 -14 50
918 -14 50
919 -14 50
920 20 42
921 20 42
922 20 42
923 20 42
924 20 42
925 20 42
926 -46 -28
927 -46 -28
928 -46 -28
929 -46 -28
930 -46 -28
DEMAND_SECTION
1 0
2 20
3 2
4 2
5 2
6 2
7 20
8 10
9 2
10 2
11 2
12 40
13 20
14 2
15 2
16 20
17 10
18 2
19 2
20 2
21 2
22 40
23 40
24 20
25 40
26 10
27 2
28 2
29 2
30 2
31 40
32 10
33 2
34 40
35 2
36 2
37 2
38 1
39 40
40 20
41 2
42 2
43 2
44 2
45 1
46 40
47 2
48 2
49 2
50 2
51 40
52 40
53 10
54 2
55 20
56 10
57 2
58 2
59 2
60 2
61 40
62 10
63 2
64 2
65 2
66 2
67 40
68 40
69 2
70 2
71 2
72 40
73 20
74 10
75 2
76 2
77 20
78 2
79 2
80 2
81 2
82 40
83 40
84 20
85 40
86 40
87 10
88 2
89 2
90 2
91 2
92 1
93 40
94 20
95 2
96 40
97 40
98 10
99 20
100 2
101 2
102 1
103 40
104 20
105 2
106 2
107 2
108 1
109 40
110 2
111 2
112 2
113 2
114 40
115 40
116 10
117 2
118 2
119 2
120 2
121 1
122 40
123 10
124 2
125 2
126 2
127 40
128 10
129 1
130 40
131 20
132 10
133 2
134 1
135 40
136 40
137 2
138 2
139 2
140 2
141 40
142 40
143 10
144 2
145 2
146 40
147 20
148 2
149 2
150 20
151 2
152 2
153 2
154 2
155 1
156 40
157 20
158 10
159 2
160 2
161 40
162 20
163 2
164 2
165 1
166 40
167 20
168 10
169 2
170 20
171 2
172 2
173 1
174 40
175 20
176 10
177 2
178 2
179 2
180 1
181 20
182 10
183 2
184 2
185 2
186 40
187 20
188 10
189 2
190 2
191 2
192 2
193 40
194 40
195 2
196 2
197 1
198 20
199 10
200 2
201 1
202 40
203 2
204 2
205 1
206 40
207 2
208 2
209 2
210 1
211 40
212 10
213 2
214 2
215 40
216 40
217 2
218 2
219 1
220 40
221 1
222 40
223 10
224 2
225 20
226 10
227 40
228 40
229 10
230 2
231 2
232 20
233 10
234 2
235 2
236 2
237 20
238 10
239 2
240 2
241 1
242 40
243 40
244 10
245 2
246 2
247 2
248 2
249 20
250 10
251 2
252 1
253 40
254 40
255 2
256 2
257 2
258 40
259 20
260 10
261 2
262 2
263 2
264 40
265 20
266 2
267 2
268 2
269 2
270 1
271 40
272 20
273 10
274 2
275 2
276 40
277 20
278 10
279 2
280 2
281 2
282 1
283 40
284 40
285 10
286 2
287 2
288 2
289 40
290 2
291 2
292 20
293 2
294 2
295 2
296 2
297 1
298 40
299 2
300 2
301 2
302 2
303 1
304 40
305 2
306 2
307 40
308 20
309 10
310 40
311 2
312 2
313 2
314 2
315 1
316 40
317 40
318 2
319 2
320 2
321 2
322 1
323 40
324 20
325 2
326 2
327 1
328 40
329 40
330 2
331 2
332 2
333 2
334 40
335 40
336 2
337 2
338 2
339 2
340 1
341 20
342 10
343 2
344 2
345 1
346 40
347 1
348 20
349 10
350 2
351 2
352 1
353 40
354 1
355 40
356 40
357 2
358 2
359 40
360 40
361 40
362 10
363 2
364 2
365 2
366 2
367 40
368 40
369 2
370 2
371 1
372 40
373 2
374 2
375 40
376 40
377 20
378 40
379 40
380 40
381 2
382 2
383 40
384 10
385 2
386 2
387 2
388 40
389 20
390 2
391 1
392 40
393 20
394 10
395 2
396 2
397 2
398 2
399 40
400 20
401 10
402 2
403 2
404 2
405 2
406 40
407 20
408 2
409 2
410 2
411 1
412 40
413 20
414 2
415 1
416 40
417 2
418 40
419 40
420 2
421 2
422 2
423 40
424 40
425 2
426 2
427 1
428 20
429 2
430 2
431 2
432 40
433 10
434 2
435 2
436 1
437 20
438 10
439 2
440 2
441 2
442 1
443 40
444 10
445 2
446 20
447 2
448 2
449 2
450 2
451 1
452 40
453 40
454 10
455 2
456 2
457 40
458 40
459 40
460 40
461 2
462 2
463 2
464 2
465 1
466 40
467 40
468 20
469 40
470 20
471 10
472 2
473 2
474 2
475 1
476 40
477 20
478 2
479 2
480 2
481 2
482 40
483 40
484 10
485 2
486 40
487 1
488 20
489 10
490 1
491 20
492 2
493 2
494 2
495 2
496 40
497 10
498 1
499 40
500 20
501 10
502 2
503 2
504 2
505 1
506 40
507 40
508 2
509 2
510 40
511 40
512 2
513 2
514 2
515 2
516 40
517 20
518 10
519 2
520 2
521 2
522 2
523 1
524 40
525 20
526 2
527 1
528 40
529 2
530 2
531 2
532 1
533 40
534 40
535 2
536 40
537 40
538 10
539 2
540 2
541 2
542 1
543 40
544 2
545 1
546 40
547 20
548 10
549 2
550 2
551 2
552 1
553 40
554 40
555 2
556 2
557 2
558 2
559 1
560 40
561 2
562 2
563 2
564 2
565 40
566 1
567 40
568 2
569 40
570 20
571 2
572 2
573 2
574 1
575 40
576 20
577 10
578 2
579 2
580 40
581 40
582 2
583 2
584 1
585 40
586 40
587 1
588 40
589 2
590 2
591 2
592 2
593 1
594 40
595 20
596 2
597 2
598 2
599 40
600 20
601 2
602 2
603 1
604 40
605 2
606 2
607 2
608 40
609 40
610 10
611 2
612 1
613 20
614 10
615 2
616 2
617 2
618 2
619 40
620 10
621 1
622 40
623 20
624 2
625 2
626 1
627 40
628 20
629 2
630 2
631 2
632 2
633 1
634 40
635 40
636 10
637 2
638 2
639 1
640 40
641 40
642 2
643 40
644 40
645 10
646 1
647 20
648 2
649 2
650 2
651 2
652 1
653 20
654 10
655 40
656 2
657 2
658 2
659 20
660 2
661 2
662 2
663 2
664 40
665 10
666 2
667 2
668 20
669 10
670 2
671 2
672 2
673 2
674 40
675 40
676 10
677 2
678 2
679 40
680 20
681 2
682 2
683 2
684 1
685 40
686 20
687 2
688 2
689 2
690 2
691 20
692 10
693 2
694 2
695 1
696 20
697 10
698 2
699 40
700 20
701 2
702 2
703 1
704 40
705 2
706 40
707 40
708 10
709 2
710 1
711 40
712 20
713 2
714 40
715 10
716 2
717 40
718 20
719 10
720 2
721 2
722 40
723 2
724 40
725 40
726 2
727 2
728 2
729 1
730 40
731 40
732 10
733 2
734 2
735 40
736 20
737 10
738 2
739 2
740 2
741 1
742 40
743 20
744 2
745 2
746 40
747 20
748 10
749 2
750 2
751 40
752 20
753 2
754 2
755 2
756 1
757 40
758 10
759 2
760 2
761 1
762 20
763 2
764 2
765 2
766 2
767 40
768 2
769 40
770 40
771 2
772 2
773 40
774 2
775 2
776 1
777 40
778 10
779 20
780 10
781 2
782 2
783 2
784 1
785 40
786 40
787 10
788 2
789 2
790 2
791 1
792 40
793 40
794 2
795 2
796 2
797 2
798 1
799 40
800 40
801 2
802 2
803 2
804 2
805 40
806 2
807 2
808 2
809 2
810 20
811 2
812 2
813 2
814 2
815 40
816 10
817 1
818 40
819 40
820 10
821 2
822 2
823 1
824 40
825 40
826 1
827 20
828 10
829 2
830 40
831 2
832 2
833 2
834 40
835 40
836 1
837 40
838 2
839 1
840 20
841 10
842 40
843 2
844 2
845 2
846 2
847 40
848 40
849 20
850 40
851 40
852 2
853 2
854 20
855 10
856 2
857 1
858 40
859 20
860 10
861 2
862 2
863 2
864 2
865 1
866 40
867 10
868 2
869 2
870 2
871 40
872 40
873 10
874 1
875 40
876 2
877 2
878 1
879 40
880 40
881 10
882 2
883 2
884 2
885 40
886 40
887 2
888 2
889 2
890 1
891 20
892 2
893 2
894 2
895 40
896 2
897 2
898 1
899 20
900 10
901 2
902 2
903 20
904 2
905 2
906 2
907 2
908 1
909 40
910 40
911 10
912 2
913 40
914 20
915 2
916 40
917 20
918 2
919 2
920 40
921 40
922 2
923 2
924 2
925 1
926 40
927 40
928 2
929 2
930 1
DEPOT_SECTION
1
-1
EOF