SDVRP instances/custom_instances/p10_16_split0.sol
929 -6 10 8 9 7 721 140 141 143 510 512 -30 270 171 274 169 272 271 172 492 490 504 498 502 -31 32 491 494 119 115 120 118 116 851 850 2 3 1 5 4 480 479 475 476 477 478 810 813 812 811 809 -36 34 37 35 33 705 707 706 353 352 616 613 615 617 -54 57 58 443 444 442 457 456 750 753 94 -55 56 59 652 282 285 923 924 920 921 922 919 239 240 237 236 238 -64 63 60 61 62 65 765 763 764 773 774 775 772 546 550 549 551 545 548 547 488 -81 345 82 83 92 93 -97 636 633 507 505 506 508 840 839 782 778 781 779 -98 821 820 817 819 822 818 366 368 370 367 369 -101 100 99 250 251 74 73 71 153 152 154 151 150 149 266 263 267 265 268 269 264 703 704 -111 108 109 392 391 220 219 230 227 228 229 -112 110 609 608 50 53 51 52 574 576 -113 114 117 852 849 130 133 131 129 132 -138 137 136 411 413 414 412 362 363 361 364 365 360 359 122 125 123 124 184 181 182 -162 163 160 161 164 178 177 174 175 173 627 626 -168 167 166 165 647 650 646 651 648 649 877 875 876 874 776 777 -176 179 691 692 693 694 690 697 696 695 67 68 69 66 70 198 197 200 199 -194 192 195 193 196 331 329 327 330 332 328 762 761 -206 207 209 620 619 618 914 912 913 571 570 569 573 568 572 259 262 -216 214 215 218 217 45 47 49 48 46 906 905 902 903 907 904 671 667 670 669 672 668 -232 234 231 233 235 527 531 529 530 528 306 308 307 38 44 42 170 273 -244 242 241 243 247 246 470 468 469 471 225 224 712 -245 255 252 253 256 254 156 157 158 155 587 -248 249 564 565 139 134 135 624 623 621 433 435 -258 824 823 825 882 883 880 881 878 879 -260 261 257 208 205 741 742 341 344 343 340 342 437 440 441 439 438 -286 287 284 283 791 795 794 792 797 796 793 221 222 223 754 752 346 -289 288 290 24 26 28 27 25 29 723 726 728 725 727 724 628 632 629 631 630 -293 292 121 325 323 324 322 326 183 180 684 688 686 689 685 687 -294 296 295 602 598 600 599 601 744 743 17 16 20 19 18 15 887 884 886 885 889 888 -299 302 297 301 300 298 311 89 88 87 90 84 91 86 85 72 75 622 625 -304 303 305 281 276 280 275 278 277 279 854 856 612 614 836 838 837 -314 310 312 309 313 916 918 915 917 337 334 338 335 333 339 336 -317 320 319 321 318 316 807 806 808 805 804 540 541 539 535 538 537 536 567 -356 357 354 355 145 147 148 146 657 656 655 654 -358 542 375 374 376 499 -373 730 729 731 732 733 466 465 467 544 543 -377 898 900 899 901 927 928 926 925 929 607 -382 384 386 410 405 408 407 406 409 833 834 835 -388 390 389 387 866 865 867 869 639 640 641 -394 396 393 397 395 378 379 381 380 583 579 581 580 582 -416 415 201 204 202 203 816 814 815 832 829 831 830 159 591 592 589 588 590 472 474 473 -419 421 420 418 417 554 555 557 553 558 556 552 853 855 -425 424 422 423 426 677 674 673 675 676 -436 291 431 434 432 870 871 873 872 446 -448 450 447 445 449 210 211 213 212 13 11 14 12 757 759 758 756 760 -452 455 451 454 453 748 749 745 747 746 751 755 653 -485 127 126 566 784 827 826 -486 128 315 585 586 584 718 716 719 720 717 -493 39 41 43 40 660 659 662 658 661 911 908 910 909 560 559 563 561 562 -501 503 500 372 371 768 771 770 769 710 711 -511 509 513 514 848 846 847 666 663 665 664 -518 520 496 497 495 464 463 458 460 462 459 461 637 635 634 638 -521 522 517 519 515 516 95 96 787 785 788 790 -525 523 524 526 105 107 799 803 802 798 644 642 -578 577 575 383 385 734 738 739 736 737 735 740 862 857 859 861 863 858 860 864 611 610 -603 606 605 604 891 400 893 404 402 401 399 403 892 890 398 350 348 351 349 347 144 142 722 -683 681 682 680 678 679 594 595 597 596 593 226 489 487 709 708 -714 713 715 482 483 481 484 429 428 430 427 77 79 80 78 76 868 -766 767 23 21 22 895 894 896 897 -780 783 698 701 700 702 699 186 191 188 189 185 187 190 645 643 789 786 -801 800 106 103 102 104 533 532 534 842 844 841 843 845 828 0 





OBJ=
5843.687
BEST_KNOWN=
0.000